MLT08
Position Depot: Random
Horizon for Depot: Large
Position of customers: Mixt
Distribution of the demand: Medium
Width of time windows: Tight
Distribution of the service: Small

VEHICLE 
NUMBER 	 CAPACITY 
 9 	 	 242 
 
CUSTOMER
CUST NO. 	 XCOORD.  	 YCOORD. 	 DEMAND 	 READY TIME 	 DUE DATE 	 SERVICE TIME 
 0 	 	 977 	 	 61 	 	 0 	 	 0 	 	 3230 	 	 0 
  1 	 	 663 	 	 194 	 	 10 	 	 2333 	 	 2414 	 	 55 
  2 	 	 328 	 	 707 	 	 6 	 	 838 	 	 1007 	 	 80 
  3 	 	 599 	 	 948 	 	 1 	 	 2469 	 	 2603 	 	 73 
  4 	 	 604 	 	 799 	 	 4 	 	 1517 	 	 1658 	 	 65 
  5 	 	 362 	 	 652 	 	 7 	 	 828 	 	 938 	 	 55 
  6 	 	 666 	 	 945 	 	 4 	 	 1800 	 	 1887 	 	 70 
  7 	 	 339 	 	 679 	 	 9 	 	 1349 	 	 1521 	 	 97 
  8 	 	 625 	 	 895 	 	 5 	 	 2173 	 	 2254 	 	 50 
  9 	 	 697 	 	 974 	 	 7 	 	 882 	 	 1050 	 	 55 
  10 	 	 727 	 	 170 	 	 5 	 	 1344 	 	 1540 	 	 80 
  11 	 	 274 	 	 651 	 	 9 	 	 2297 	 	 2486 	 	 64 
  12 	 	 601 	 	 820 	 	 87 	 	 745 	 	 931 	 	 59 
  13 	 	 640 	 	 970 	 	 98 	 	 1574 	 	 1739 	 	 59 
  14 	 	 220 	 	 668 	 	 74 	 	 937 	 	 1067 	 	 54 
  15 	 	 683 	 	 233 	 	 10 	 	 2364 	 	 2468 	 	 63 
  16 	 	 356 	 	 690 	 	 10 	 	 990 	 	 1175 	 	 69 
  17 	 	 584 	 	 108 	 	 1 	 	 2399 	 	 2589 	 	 83 
  18 	 	 401 	 	 673 	 	 70 	 	 868 	 	 924 	 	 52 
  19 	 	 542 	 	 947 	 	 3 	 	 899 	 	 1085 	 	 81 
  20 	 	 530 	 	 86 	 	 4 	 	 309 	 	 492 	 	 65 
  21 	 	 922 	 	 145 	 	 6 	 	 1236 	 	 1370 	 	 65 
  22 	 	 312 	 	 748 	 	 64 	 	 2355 	 	 2476 	 	 51 
  23 	 	 559 	 	 964 	 	 7 	 	 1717 	 	 1774 	 	 83 
  24 	 	 753 	 	 904 	 	 4 	 	 980 	 	 1152 	 	 57 
  25 	 	 676 	 	 89 	 	 95 	 	 889 	 	 1049 	 	 63 
  26 	 	 394 	 	 585 	 	 4 	 	 758 	 	 862 	 	 82 
  27 	 	 586 	 	 988 	 	 1 	 	 2386 	 	 2558 	 	 73 
  28 	 	 689 	 	 210 	 	 1 	 	 301 	 	 356 	 	 86 
  29 	 	 571 	 	 23 	 	 54 	 	 571 	 	 700 	 	 88 
  30 	 	 627 	 	 924 	 	 63 	 	 3093 	 	 3230 	 	 63 
  31 	 	 277 	 	 684 	 	 8 	 	 2689 	 	 2774 	 	 96 
  32 	 	 639 	 	 208 	 	 8 	 	 323 	 	 405 	 	 95 
  33 	 	 562 	 	 991 	 	 99 	 	 1036 	 	 1120 	 	 62 
  34 	 	 722 	 	 173 	 	 98 	 	 2173 	 	 2285 	 	 91 
  35 	 	 577 	 	 906 	 	 80 	 	 2473 	 	 2530 	 	 76 
  36 	 	 631 	 	 213 	 	 2 	 	 1458 	 	 1658 	 	 99 
  37 	 	 392 	 	 773 	 	 3 	 	 3073 	 	 3170 	 	 93 
  38 	 	 679 	 	 192 	 	 9 	 	 2608 	 	 2693 	 	 50 
  39 	 	 283 	 	 773 	 	 7 	 	 1839 	 	 2018 	 	 99 
  40 	 	 680 	 	 159 	 	 6 	 	 1033 	 	 1175 	 	 84 
  41 	 	 508 	 	 1000 	 	 97 	 	 1245 	 	 1399 	 	 94 
  42 	 	 312 	 	 637 	 	 7 	 	 797 	 	 967 	 	 58 
  43 	 	 571 	 	 979 	 	 4 	 	 2697 	 	 2847 	 	 84 
  44 	 	 572 	 	 909 	 	 8 	 	 848 	 	 1033 	 	 91 
  45 	 	 685 	 	 180 	 	 1 	 	 2541 	 	 2653 	 	 91 
  46 	 	 712 	 	 880 	 	 9 	 	 1770 	 	 1953 	 	 81 
  47 	 	 611 	 	 960 	 	 1 	 	 2452 	 	 2556 	 	 69 
  48 	 	 738 	 	 237 	 	 3 	 	 512 	 	 566 	 	 94 
  49 	 	 375 	 	 735 	 	 7 	 	 2666 	 	 2794 	 	 98 
  50 	 	 682 	 	 178 	 	 7 	 	 230 	 	 349 	 	 62 
  51 	 	 360 	 	 425 	 	 7 	 	 2508 	 	 2605 	 	 69 
  52 	 	 703 	 	 386 	 	 5 	 	 2504 	 	 2640 	 	 59 
  53 	 	 127 	 	 95 	 	 86 	 	 824 	 	 935 	 	 90 
  54 	 	 408 	 	 738 	 	 4 	 	 1104 	 	 1287 	 	 50 
  55 	 	 592 	 	 11 	 	 91 	 	 1993 	 	 2046 	 	 96 
  56 	 	 312 	 	 946 	 	 8 	 	 2384 	 	 2467 	 	 99 
  57 	 	 770 	 	 294 	 	 3 	 	 1244 	 	 1296 	 	 78 
  58 	 	 785 	 	 785 	 	 8 	 	 1324 	 	 1492 	 	 88 
  59 	 	 293 	 	 383 	 	 8 	 	 1280 	 	 1448 	 	 98 
  60 	 	 542 	 	 560 	 	 50 	 	 2379 	 	 2493 	 	 93 
  61 	 	 643 	 	 518 	 	 6 	 	 2847 	 	 2961 	 	 87 
  62 	 	 821 	 	 703 	 	 7 	 	 604 	 	 726 	 	 62 
  63 	 	 960 	 	 447 	 	 7 	 	 2140 	 	 2243 	 	 66 
  64 	 	 726 	 	 735 	 	 7 	 	 825 	 	 962 	 	 100 
  65 	 	 146 	 	 194 	 	 6 	 	 915 	 	 971 	 	 100 
  66 	 	 567 	 	 308 	 	 4 	 	 1317 	 	 1517 	 	 85 
  67 	 	 41 	 	 688 	 	 6 	 	 2381 	 	 2457 	 	 67 
  68 	 	 861 	 	 157 	 	 5 	 	 1940 	 	 2114 	 	 51 
  69 	 	 581 	 	 425 	 	 6 	 	 2900 	 	 3081 	 	 76 
  70 	 	 18 	 	 102 	 	 6 	 	 1004 	 	 1055 	 	 59 
  71 	 	 514 	 	 930 	 	 5 	 	 1117 	 	 1267 	 	 65 
  72 	 	 358 	 	 359 	 	 4 	 	 2183 	 	 2280 	 	 87 
  73 	 	 917 	 	 693 	 	 76 	 	 2756 	 	 2888 	 	 56 
  74 	 	 669 	 	 651 	 	 58 	 	 966 	 	 1075 	 	 74 
  75 	 	 970 	 	 485 	 	 5 	 	 2524 	 	 2613 	 	 57 
  76 	 	 711 	 	 78 	 	 4 	 	 2295 	 	 2420 	 	 70 
  77 	 	 463 	 	 193 	 	 5 	 	 1118 	 	 1289 	 	 55 
  78 	 	 263 	 	 937 	 	 10 	 	 3063 	 	 3230 	 	 57 
  79 	 	 981 	 	 44 	 	 2 	 	 319 	 	 509 	 	 50 
  80 	 	 519 	 	 695 	 	 1 	 	 775 	 	 860 	 	 59 
  81 	 	 3 	 	 633 	 	 8 	 	 2482 	 	 2534 	 	 75 
  82 	 	 646 	 	 798 	 	 9 	 	 2428 	 	 2493 	 	 92 
  83 	 	 706 	 	 113 	 	 10 	 	 2767 	 	 2886 	 	 90 
  84 	 	 207 	 	 426 	 	 8 	 	 870 	 	 937 	 	 94 
  85 	 	 928 	 	 842 	 	 69 	 	 1093 	 	 1155 	 	 64 
  86 	 	 264 	 	 682 	 	 10 	 	 2696 	 	 2892 	 	 79 
  87 	 	 200 	 	 594 	 	 88 	 	 2369 	 	 2427 	 	 70 
  88 	 	 122 	 	 27 	 	 9 	 	 2905 	 	 2970 	 	 86 
  89 	 	 535 	 	 381 	 	 91 	 	 1807 	 	 1883 	 	 51 
  90 	 	 635 	 	 822 	 	 65 	 	 3066 	 	 3230 	 	 97 
  91 	 	 747 	 	 637 	 	 54 	 	 3032 	 	 3093 	 	 97 
  92 	 	 686 	 	 830 	 	 2 	 	 741 	 	 904 	 	 100 
  93 	 	 930 	 	 823 	 	 2 	 	 716 	 	 839 	 	 93 
  94 	 	 286 	 	 738 	 	 3 	 	 878 	 	 1064 	 	 52 
  95 	 	 424 	 	 450 	 	 8 	 	 583 	 	 743 	 	 99 
  96 	 	 36 	 	 63 	 	 50 	 	 2989 	 	 3078 	 	 55 
  97 	 	 121 	 	 810 	 	 8 	 	 2708 	 	 2848 	 	 64 
  98 	 	 759 	 	 902 	 	 5 	 	 1150 	 	 1270 	 	 91 
  99 	 	 591 	 	 571 	 	 4 	 	 609 	 	 703 	 	 98 
  100 	 	 212 	 	 914 	 	 6 	 	 2718 	 	 2818 	 	 63 
 